outputs/case_211.model.txt
non_credit_transaction_party = True
repo_bond = True
asset_transaction_exclusion = False
is_fhc_and_responsible_or_major_shareholder = True
bank_subsidiary_net_worth = 0
domestic_government_bond = False
board_attendance_ratio = 6666666667/10000000000
transaction_type = True
bank_subsidiary_single_related_party_transaction_amount = 0
is_fhc_responsible_or_major_shareholder_sole_proprietor_or_partner_or_enterprise_or_representative = True
is_fhc_bank_insurance_securities_subsidiary_or_subsidiary_responsible = True
board_approval_ratio = 3/4
is_fhc_affiliated_company_and_responsible_or_major_shareholder = True
money_market_fund = False
bank_subsidiary_all_related_party_transaction_amount = 0
transaction_condition_not_better_than_others = True
violation_article_60_4 = False
article_55_1_compliance = True
article_42_1_compliance = True
violation_article_60_2 = False
non_credit_transaction_condition_met = True
violation_article_60_19 = False
bank_subsidiary_single_related_party_limit_ok = True
violation_article_60_10 = False
internal_operation_rules_authorized = False
non_loan_transaction_authorized = False
article_16_10_compliance = True
article_16_1_2_9_7_compliance = True
single_corporate_shareholder = False
board_member_recusal = False
no_proxy_vote = False
non_loan_transaction_single_related_party_amount = 0
insurance_owner_equity = 0
non_loan_transaction_all_related_party_amount = 0
non_loan_transaction_compliance = False
violation_article_60_15 = False
violation_article_60_3 = False
article_46_1_compliance = True
violation_article_60_9 = False
non_loan_transaction_condition_met = True
transaction_amount = 0
total_assets = 0
paid_in_capital = 0
board_approval = False
supervisor_approval = False
asset_transaction_approval_required = False
violation_article_60_17 = False
article_40_41_compliance = True
article_53_1_2_compliance = True
violation_article_45 = False
violation_article_60_13 = False
article_16_3_compliance = True
article_16_6_compliance = True
violation_article_60_1 = False
violation_article_60_6 = False
is_transaction_between_parent_subsidiaries = False
asset_transaction_shareholder_approval_required = False
article_56_1_compliance = True
bank_subsidiary_all_related_party_limit_ok = True
article_51_compliance = True
non_credit_transaction_compliance = True
article_38_compliance = True
violation_article_60_16 = False
violation_article_60_14 = False
asset_transaction_reporting_required = True
violation_article_60_12 = False
non_loan_transaction_limit_all_related_party_ok = True
article_39_3_compliance = True
article_18_1_compliance = True
board_member_recusal_compliance = False
article_43_1_2_4_compliance = True
non_loan_transaction_limit_single_related_party_ok = True
article_6_1_compliance = True
violation_article_60_8 = False
article_16_5_compliance = True
article_45_1_4_compliance = True
violation_article_60_11 = False
violation_article_60_7 = False
article_39_1_2_compliance = True
violation_article_60_18 = False
penalty = False
violation_article_60_5 = False